c turning on binary mode checking
c parsing input formula with 259840 variables and 1039924 clauses
c finished parsing, read 2539955 bytes from proof file
c detected empty clause; start verification via backward checking
c 3114 of 1039924 clauses in core                            
c 1143 of 107441 lemmas in core using 27003 resolution steps
c 0 RAT lemmas in core; 130 redundant literals in core lemmas
s VERIFIED
c verification time: 1.171 seconds
